BM                                      
   6.65398082500000     
     1.0000000000000000    0.0000000000000000    0.0000000000000000
     0.0000000000000000    1.0000000000000000    0.0000000000000000
     0.0000000000000000    0.0000000000000000    1.0000000000000000
   Sn
     8
Selective dynamics
Direct
  0.1250000000000000  0.1250000000000000  0.1250000000000000   T   T   T
  0.8750000000000000  0.8750000000000000  0.8750000000000000   T   T   T
  0.1250000000000000  0.6250000000000000  0.6250000000000000   T   T   T
  0.8750000000000000  0.3750000000000000  0.3750000000000000   T   T   T
  0.6250000000000000  0.1250000000000000  0.6250000000000000   T   T   T
  0.3750000000000000  0.8750000000000000  0.3750000000000000   T   T   T
  0.6250000000000000  0.6250000000000000  0.1250000000000000   T   T   T
  0.3750000000000000  0.3750000000000000  0.8750000000000000   T   T   T
 
  0.00000000E+00  0.00000000E+00  0.00000000E+00
  0.00000000E+00  0.00000000E+00  0.00000000E+00
  0.00000000E+00  0.00000000E+00  0.00000000E+00
  0.00000000E+00  0.00000000E+00  0.00000000E+00
  0.00000000E+00  0.00000000E+00  0.00000000E+00
  0.00000000E+00  0.00000000E+00  0.00000000E+00
  0.00000000E+00  0.00000000E+00  0.00000000E+00
  0.00000000E+00  0.00000000E+00  0.00000000E+00
