phonon calculation supercell 2x2x2
0
Monkhorst Pack
4 4 4
0 0 0